     Program PWSCF v.6.4.1 starts on  9Nov2020 at 11: 6: 9

     R & G space division:  proc/nbgrp/npool/nimage =      28
     Waiting for input...
     Reading input from standard input
Warning: card &CELL ignored
Warning: card / ignored

     Current dimensions of program PWSCF are:
     Max number of different atomic species (ntypx) = 10
     Max number of k-points (npk) =  40000
     Max angular momentum in pseudopotentials (lmaxx) =  3

     Subspace diagonalization in iterative solution of the eigenvalue problem:
     a serial algorithm will be used

     bravais-lattice index     =            0
     lattice parameter (alat)  =      14.8642  a.u.
     unit-cell volume          =   17006.3834 (a.u.)^3
     number of atoms/cell      =           80
     number of atomic types    =            4
     number of electrons       =       713.00
     number of Kohn-Sham states=          428
     kinetic-energy cutoff     =      40.0000  Ry
     charge density cutoff     =     160.0000  Ry
     convergence threshold     =      1.0E-04
     mixing beta               =       0.2000
     number of iterations used =            8  local-TF  mixing
     Exchange-correlation      =  SLA  PW   PBX  PBC ( 1  4  3  4 0 0)
     nstep                     =           50

     celldm(1)=  14.864180  celldm(2)=   0.000000  celldm(3)=   0.000000
     celldm(4)=   0.000000  celldm(5)=   0.000000  celldm(6)=   0.000000

     crystal axes: (cart. coord. in units of alat)
               a(1) = (   1.000000   0.000000   0.000000 )
               a(2) = (   0.000000   1.000000   0.000000 )
               a(3) = (   0.000000   0.000000   5.178322 )

     reciprocal axes: (cart. coord. in units 2 pi/alat)
               b(1) = (  1.000000  0.000000  0.000000 )
               b(2) = (  0.000000  1.000000  0.000000 )
               b(3) = (  0.000000  0.000000  0.193113 )

     PseudoPot. # 1 for Mn read from file:
     /dss/dsshome1/lxc08/ge97taz2/pseudo/all_pbe_UPF_v1.5/mn_pbe_v1.5.uspp.F.UPF
     MD5 check sum: 82ef2b46521d7a7d9e736dc3972e4928
     Pseudo is Ultrasoft + core correction, Zval = 15.0
     Generated by new atomic code, or converted to UPF format
     Using radial grid of  859 points,  6 beta functions with:
                l(1) =   0
                l(2) =   0
                l(3) =   1
                l(4) =   1
                l(5) =   2
                l(6) =   2
     Q(r) pseudized with  8 coefficients,  rinner =    0.950   0.950   0.950
                                                       0.950   0.950

     PseudoPot. # 2 for La read from file:
     /dss/dsshome1/lxc08/ge97taz2/pseudo/all_pbe_UPF_v1.5/la_pbe_v1.uspp.F.UPF
     MD5 check sum: 5937b0c7494ba0601a847275249473aa
     Pseudo is Ultrasoft + core correction, Zval = 11.0
     Generated by new atomic code, or converted to UPF format
     Using radial grid of  995 points,  8 beta functions with:
                l(1) =   0
                l(2) =   0
                l(3) =   1
                l(4) =   1
                l(5) =   2
                l(6) =   2
                l(7) =   3
                l(8) =   3
     Q(r) pseudized with  8 coefficients,  rinner =    1.700   1.700   1.700
                                                       1.700   1.700   1.700
                                                       1.700

     PseudoPot. # 3 for O  read from file:
     /dss/dsshome1/lxc08/ge97taz2/pseudo/all_pbe_UPF_v1.5/o_pbe_v1.2.uspp.F.UPF
     MD5 check sum: 734c27235a0248c51dbae37a1fbe46ec
     Pseudo is Ultrasoft + core correction, Zval =  6.0
     Generated by new atomic code, or converted to UPF format
     Using radial grid of  737 points,  5 beta functions with:
                l(1) =   0
                l(2) =   0
                l(3) =   1
                l(4) =   1
                l(5) =   2
     Q(r) pseudized with  8 coefficients,  rinner =    0.900   0.900   0.900
                                                       0.900   0.900

     PseudoPot. # 4 for Ni read from file:
     /dss/dsshome1/lxc08/ge97taz2/pseudo/all_pbe_UPF_v1.5/ni_pbe_v1.4.uspp.F.UPF
     MD5 check sum: 1ee80287db30b12d2bc1f57a5b5d6409
     Pseudo is Ultrasoft + core correction, Zval = 18.0
     Generated by new atomic code, or converted to UPF format
     Using radial grid of  865 points,  6 beta functions with:
                l(1) =   0
                l(2) =   0
                l(3) =   1
                l(4) =   1
                l(5) =   2
                l(6) =   2
     Q(r) pseudized with 10 coefficients,  rinner =    0.980   0.980   0.980
                                                       0.980   0.980

     atomic species   valence    mass     pseudopotential
        Mn            15.00    54.93804     Mn( 1.00)
        La            11.00   138.90547     La( 1.00)
        O              6.00    15.99900     O ( 1.00)
        Ni            18.00    58.69340     Ni( 1.00)

     No symmetry found

   Cartesian axes

     site n.     atom                  positions (alat units)
         1           La  tau(   1) = (   0.0015102  -0.0000512   1.7289275  )
         2           Mn  tau(   2) = (   0.2514047   0.2500099   1.9249943  )
         3           O   tau(   3) = (   0.2513762   0.0000308   1.9312919  )
         4           O   tau(   4) = (   0.2511158   0.2500510   1.6961581  )
         5           O   tau(   5) = (   0.0012846   0.2500028   1.9313526  )
         6           La  tau(   6) = (   0.0008390  -0.0003459   2.1833454  )
         7           Mn  tau(   7) = (   0.2509853   0.2500327   2.4072388  )
         8           O   tau(   8) = (   0.2513327   0.0001866   2.4027571  )
         9           O   tau(   9) = (   0.2513668   0.2499692   2.1691014  )
        10           O   tau(  10) = (   0.0016500   0.2500198   2.4027037  )
        11           La  tau(  11) = (   0.0019976   0.0008774   2.6571367  )
        12           Ni  tau(  12) = (   0.2513078   0.2502386   2.8795868  )
        13           O   tau(  13) = (   0.2519939  -0.0081871   2.8707618  )
        14           O   tau(  14) = (   0.2514629   0.2500388   2.6377880  )
        15           O   tau(  15) = (  -0.0066449   0.2506428   2.8707477  )
        16           La  tau(  16) = (  -0.0016365  -0.0024651   3.1592893  )
        17           Mn  tau(  17) = (   0.2501553   0.2503519   3.3430345  )
        18           O   tau(  18) = (   0.2519214   0.0121557   3.3511787  )
        19           O   tau(  19) = (   0.2528262   0.2508445   3.1170689  )
        20           O   tau(  20) = (   0.0150284   0.2505435   3.3513330  )
        21           La  tau(  21) = (   0.0015277   0.5000587   1.7289223  )
        22           Mn  tau(  22) = (   0.2513987   0.7499988   1.9249946  )
        23           O   tau(  23) = (   0.2513734   0.4999781   1.9313733  )
        24           O   tau(  24) = (   0.2511167   0.7499553   1.6965635  )
        25           O   tau(  25) = (   0.0012094   0.7500046   1.9317552  )
        26           La  tau(  26) = (   0.0008325   0.5003776   2.1833362  )
        27           Mn  tau(  27) = (   0.2509475   0.7500422   2.4072041  )
        28           O   tau(  28) = (   0.2513365   0.4998130   2.4027052  )
        29           O   tau(  29) = (   0.2514136   0.7500396   2.1692824  )
        30           O   tau(  30) = (   0.0017201   0.7500173   2.4030538  )
        31           La  tau(  31) = (   0.0020034   0.4992722   2.6570841  )
        32           Mn  tau(  32) = (   0.2484954   0.7503452   2.8840657  )
        33           O   tau(  33) = (   0.2519793   0.5084497   2.8709564  )
        34           O   tau(  34) = (   0.2524498   0.7499730   2.6391365  )
        35           O   tau(  35) = (   0.0029183   0.7505057   2.8725104  )
        36           La  tau(  36) = (  -0.0011095   0.5026892   3.1586211  )
        37           Ni  tau(  37) = (   0.2500071   0.7502585   3.3571862  )
        38           O   tau(  38) = (   0.2518361   0.4901672   3.3506712  )
        39           O   tau(  39) = (   0.2540867   0.7505651   3.1107223  )
        40           O   tau(  40) = (   0.0055293   0.7499934   3.3510261  )
        41           La  tau(  41) = (   0.5016321  -0.0000499   1.7289296  )
        42           Mn  tau(  42) = (   0.7514126   0.2500017   1.9249909  )
        43           O   tau(  43) = (   0.7513704  -0.0000452   1.9317143  )
        44           O   tau(  44) = (   0.7511705   0.2500153   1.6965574  )
        45           O   tau(  45) = (   0.5012304   0.2500035   1.9313056  )
        46           La  tau(  46) = (   0.5015519  -0.0003503   2.1833362  )
        47           Mn  tau(  47) = (   0.7509729   0.2500104   2.4072056  )
        48           O   tau(  48) = (   0.7513292   0.0002866   2.4030793  )
        49           O   tau(  49) = (   0.7513256   0.2500428   2.1692731  )
        50           O   tau(  50) = (   0.5012707   0.2500189   2.4027271  )
        51           La  tau(  51) = (   0.5004559   0.0008108   2.6570750  )
        52           Mn  tau(  52) = (   0.7513615   0.2477373   2.8840700  )
        53           O   tau(  53) = (   0.7518716   0.0014660   2.8724204  )
        54           O   tau(  54) = (   0.7514590   0.2511664   2.6391137  )
        55           O   tau(  55) = (   0.5100410   0.2506418   2.8708990  )
        56           La  tau(  56) = (   0.5035807  -0.0021247   3.1588407  )
        57           Ni  tau(  57) = (   0.7486494   0.2490332   3.3571438  )
        58           O   tau(  58) = (   0.7513210   0.0043232   3.3510025  )
        59           O   tau(  59) = (   0.7527434   0.2527634   3.1107341  )
        60           O   tau(  60) = (   0.4927778   0.2504352   3.3508106  )
[...]
        66           La  tau(  66) = (   0.5015575   0.5003808   2.1833327  )
        67           Mn  tau(  67) = (   0.7509657   0.7500165   2.4080629  )
        68           O   tau(  68) = (   0.7513281   0.5002486   2.4030581  )
        69           O   tau(  69) = (   0.7513664   0.7500690   2.1696008  )
        70           O   tau(  70) = (   0.5016775   0.7500210   2.4031214  )
        71           La  tau(  71) = (   0.5004434   0.4993306   2.6570502  )
        72           Mn  tau(  72) = (   0.7490155   0.7481938   2.8836926  )
        73           O   tau(  73) = (   0.7519367   0.5043869   2.8723603  )
        74           O   tau(  74) = (   0.7525800   0.7512145   2.6402005  )
        75           O   tau(  75) = (   0.5058603   0.7505668   2.8723569  )
        76           La  tau(  76) = (   0.5029323   0.5021637   3.1581299  )
        77           Mn  tau(  77) = (   0.7488341   0.7477611   3.3585834  )
        78           O   tau(  78) = (   0.7512028   0.4991954   3.3515786  )
        79           O   tau(  79) = (   0.7538772   0.7525914   3.1105704  )
        80           O   tau(  80) = (   0.5004592   0.7498347   3.3515930  )

     number of k points=    10  Marzari-Vanderbilt smearing, width (Ry)=  0.2000
                       cart. coord. in units 2pi/alat
        k(    1) = (   0.0000000   0.0000000   0.0000000), wk =   0.1250000
        k(    2) = (   0.0000000   0.2500000   0.0000000), wk =   0.2500000
[...]
Ni       5.736943312   1.791847096  26.343803568
O        5.923907575  -0.013867891  26.301460086
O        6.011096149   2.075581468  24.485443499
O        3.935861549   1.974565915  26.334894490
[...]
La       3.940606483   3.933758872  17.190940979
Mn       5.889303159   5.884713188  18.947700519
O        5.919144160   3.957984603  18.939887424
O        5.918118890   5.906828766  17.092095600
O        3.972050178   5.907658531  18.941607921
La       3.898700032   3.891695081  20.892018901
Mn       5.840773666   5.830935390  22.636059193
O        5.936670330   4.018878367  22.608418850
O        5.969628567   5.954504516  20.791115758
O        4.033264683   5.923069475  22.605884044
La       3.865303309   3.872214680  24.756499914
Mn       5.826946854   5.834716083  26.252927687
O        5.919820416   4.105691510  26.304030628
O        5.998703145   5.987920950  24.456446851
O        4.098936937   5.920108203  26.304774775

     NEW-OLD atomic charge density approx. for the potential

     Check: negative core charge=   -0.000013

[...]

     Self-consistent Calculation

     iteration #  1     ecut=    40.00 Ry     beta= 0.20
     Davidson diagonalization with overlap
     ethr =  1.00E-06,  avg # of iterations =  4.6

[...]

     total energy              =   -6973.03596694 Ry
     Harris-Foulkes estimate   =   -6973.03596706 Ry
     estimated scf accuracy    <       0.00000121 Ry

     iteration # 10     ecut=    40.00 Ry     beta= 0.20
     Davidson diagonalization with overlap
     c_bands:  2 eigenvalues not converged
     c_bands:  2 eigenvalues not converged
     c_bands:  1 eigenvalues not converged
     c_bands:  1 eigenvalues not converged
     c_bands:  2 eigenvalues not converged
     c_bands:  2 eigenvalues not converged
     c_bands:  1 eigenvalues not converged
     c_bands:  2 eigenvalues not converged
     c_bands:  2 eigenvalues not converged
     ethr =  1.70E-10,  avg # of iterations = 19.7

[...]

     End of self-consistent calculation

[...]

          k = 0.2500 0.0000 0.0000 ( 72574 PWs)   bands (ev):

[...]

          k =-0.5000 0.2500 0.0000 ( 72742 PWs)   bands (ev):

  -102.1691-102.0483-102.0455 -78.0121 -77.9993 -77.9985 -77.9606 -77.9563
   -77.9367 -77.9353 -77.9350 -77.9340 -77.8988 -77.8979 -77.8979 -77.8978
   -62.6686 -62.5307 -62.5306 -62.4916 -62.4768 -62.4489 -62.4441 -62.3097
   -62.3078 -46.8248 -46.8014 -46.7962 -46.7785 -46.7759 -46.7686 -46.7612
   -46.7612 -46.7595 -46.7520 -46.7502 -46.7373 -46.7348 -46.7308 -46.7202
   -46.7111 -46.7097 -46.7035 -46.7015 -46.7013 -46.7005 -46.6493 -46.6428
   -46.6428 -46.6401 -46.6398 -46.6381 -46.6381 -46.6375 -46.6362 -46.6351
   -46.6219 -46.6217 -46.6206 -46.6206 -46.6202 -46.6198 -46.6190 -46.6187
   -29.8957 -29.8956 -29.8581 -29.8580 -29.6068 -29.6064 -29.5701 -29.5696
   -29.5092 -29.5046 -29.4720 -29.4678 -29.3589 -29.3428 -29.3123 -29.3005
   -17.1435 -17.1425 -17.0732 -17.0187 -17.0087 -17.0038 -16.9276 -16.9129
   -16.8662 -16.8576 -16.6910 -16.6829 -16.5467 -16.5299 -16.3510 -16.3500
   -16.2842 -16.2781 -16.0981 -16.0978 -15.9996 -15.9857 -15.9844 -15.9782
   -15.9163 -15.8864 -15.8776 -15.8687 -15.8261 -15.7970 -15.7604 -15.7283
   -15.6969 -15.6821 -15.6702 -15.6414 -15.6251 -15.6123 -15.5894 -15.5673
   -15.5500 -15.5063 -15.4248 -15.4208 -15.4155 -15.4060 -15.3744 -15.3738
   -13.7448 -13.7443 -13.4379 -13.4369 -13.4057 -13.4035 -13.2788 -13.2774
   -13.2597 -13.2583 -13.1626 -13.1541 -13.1180 -13.1161 -13.0920 -13.0915
   -13.0230 -13.0143 -13.0041 -13.0004 -12.9939 -12.9893 -12.9510 -12.9465
   -12.8778 -12.8594 -12.8538 -12.8419 -12.8008 -12.7887 -12.7762 -12.7685
   -12.7059 -12.7040 -12.6553 -12.6277 -12.6235 -12.6207 -12.6084 -12.5955
   -12.5452 -12.5166 -12.4882 -12.4714 -12.3457 -12.3344 -12.3034 -12.2809
    -4.6097  -4.5148  -4.3300  -4.3163  -4.1981  -4.1876  -4.0332  -4.0226
    -3.9227  -3.8997  -3.8602  -3.8208  -3.6231  -3.6126  -3.5065  -3.4826
    -3.4734  -3.4355  -3.4083  -3.3854  -3.3666  -3.3441  -3.2673  -3.2481
    -3.2238  -3.2083  -3.1839  -3.1566  -3.1519  -3.1327  -3.1301  -3.0883
    -3.0349  -3.0155  -2.9948  -2.9850  -2.9708  -2.9435  -2.9306  -2.9204
    -2.9044  -2.8838  -2.8678  -2.8486  -2.8406  -2.8300  -2.8092  -2.7900
    -2.7520  -2.7360  -2.7277  -2.7024  -2.6846  -2.6657  -2.6240  -2.6078
    -2.5449  -2.5082  -2.4609  -2.4441  -2.4181  -2.4038  -2.3748  -2.3545
    -2.3517  -2.3394  -2.3096  -2.2845  -2.2601  -2.2263  -2.1916  -2.1838
    -2.0969  -2.0772  -2.0495  -2.0253  -1.9705  -1.8943  -1.8215  -1.8086
    -1.7768  -1.7497  -1.6893  -1.6178  -1.6119  -1.5723  -1.5451  -1.5283
    -1.4904  -1.4622  -1.3611  -1.3529  -1.2939  -1.2850  -1.1008  -1.0805
    -0.9530  -0.9415  -0.9052  -0.8995  -0.8009  -0.7726  -0.7713  -0.7569
    -0.7160  -0.7055  -0.6673  -0.6174  -0.6066  -0.5614  -0.5417  -0.5253
    -0.5141  -0.4767  -0.4175  -0.3947  -0.3895  -0.3778  -0.3452  -0.3431
    -0.2966  -0.2716  -0.2244  -0.2084  -0.1958  -0.1802  -0.1773  -0.1426
    -0.1261  -0.1191  -0.0882  -0.0618  -0.0540  -0.0317  -0.0106   0.0203
     0.0837   0.0941   0.1062   0.1222   0.2102   0.2330   0.3909   0.4076
     0.5489   0.6640   0.7117   0.7340   0.8478   0.9097   1.0176   1.0827
     1.1104   1.4385   1.4726   1.6610   1.6630   1.6844   1.6922   1.7881
     1.7914   1.8222   1.8534   1.9015   1.9258   1.9645   2.0207   2.0561
     2.0906   2.1368   2.1477   2.1530   2.1889   2.2159   2.2530   2.2744
     2.2944   2.3178   2.3343   2.3463   2.3848   2.4008   2.4222   2.4508
     2.4649   2.4950   2.5061   2.5305   2.5694   2.5807   2.6060   2.6459
     2.6668   2.6764   2.6968   2.7681   2.7943   3.0381   3.2358   3.3570
     3.4134   3.4725   3.5127   3.7307   3.9522   3.9762   4.0357   4.1262
     4.1362   4.4062   4.4214   4.5556   4.5687   4.7192   4.7940   4.8482
     4.8778   4.9099   4.9275   4.9551   4.9880   5.0559   5.0622   5.0684
     5.0918   5.1682   5.2252   5.2713   5.2760   5.2927   5.3283   5.3538
     5.3695   5.3922   5.3965   5.4317   5.4688   5.4719   5.4833   5.4852
     5.4974   5.5126   5.5351   5.5555   5.5581   5.5744   5.5775   5.5866
     5.5964   5.6058   5.6211   5.6306

     the Fermi energy is     2.3968 ev

!    total energy              =   -6973.03596654 Ry
     Harris-Foulkes estimate   =   -6973.03596698 Ry
     estimated scf accuracy    <       0.00000055 Ry

     The total energy is the sum of the following terms:

     one-electron contribution = -153666.02030959 Ry
     hartree contribution      =   76996.37993997 Ry
     xc contribution           =   -1591.31160121 Ry
     ewald contribution        =   71285.86222392 Ry
     smearing contrib. (-TS)   =       2.05378037 Ry

     convergence has been achieved in  10 iterations

     negative rho (up, down):  7.295E-01 0.000E+00

     Forces acting on atoms (cartesian axes, Ry/au):

     atom    1 type  2   force =    -0.00010514   -0.00007926    0.00019296
     atom    2 type  1   force =    -0.00004449   -0.00002314   -0.00004165
     atom    3 type  3   force =     0.00004252    0.00005325    0.00032424
     atom    4 type  3   force =     0.00008437    0.00006657   -0.00004418
     atom    5 type  3   force =     0.00009806    0.00004659    0.00032649
     atom    6 type  2   force =    -0.00035945   -0.00026038   -0.00008106
     atom    7 type  1   force =    -0.00049116   -0.00039959   -0.00013322
     atom    8 type  3   force =     0.00024745    0.00042685   -0.00020712
     atom    9 type  3   force =     0.00017113    0.00009284    0.00003625
     atom   10 type  3   force =     0.00065149    0.00019271    0.00004677
     atom   11 type  2   force =    -0.00008126   -0.00035966   -0.00010809
     atom   12 type  4   force =     0.00006736   -0.00108147    0.00061438
     atom   13 type  3   force =     0.00064081    0.00150097   -0.00084302
     atom   14 type  3   force =     0.00131147    0.00080758   -0.00010205
     atom   15 type  3   force =     0.00018256    0.00049190   -0.00081097
     atom   16 type  2   force =    -0.00018913   -0.00129144    0.00129531
     atom   17 type  1   force =     0.00057134   -0.00118541   -0.00107999
     atom   18 type  3   force =    -0.00063106   -0.00059833    0.00003431
     atom   19 type  3   force =    -0.00155526    0.00139708   -0.00032533
     atom   20 type  3   force =    -0.00077821   -0.00085832   -0.00070179
     atom   21 type  2   force =    -0.00005033    0.00009199    0.00017972
     atom   22 type  1   force =    -0.00000437   -0.00001817    0.00011252
     atom   23 type  3   force =     0.00003105    0.00004888    0.00046977
     atom   24 type  3   force =     0.00003234   -0.00003456   -0.00012413
     atom   25 type  3   force =     0.00029145    0.00004642    0.00045989
     atom   26 type  2   force =    -0.00038732   -0.00023536   -0.00005944
     atom   27 type  1   force =    -0.00055815   -0.00071934    0.00039993
     atom   28 type  3   force =     0.00024187    0.00068414   -0.00047248
     atom   29 type  3   force =     0.00076278    0.00031396    0.00023006
     atom   30 type  3   force =     0.00102457    0.00023195   -0.00064718
     atom   31 type  2   force =    -0.00033351   -0.00001438   -0.00016343
     atom   32 type  1   force =     0.00049385   -0.00002174    0.00079918
     atom   33 type  3   force =     0.00050121    0.00065348    0.00037093
     atom   34 type  3   force =     0.00023282    0.00070875   -0.00042816
     atom   35 type  3   force =     0.00005578    0.00079860    0.00005686
     atom   36 type  2   force =    -0.00196009   -0.00090748    0.00038418
     atom   37 type  4   force =    -0.00114684    0.00253228    0.00075251
     atom   38 type  3   force =     0.00021527   -0.00259780    0.00055481
     atom   39 type  3   force =    -0.00122285    0.00166460   -0.00065045
     atom   40 type  3   force =    -0.00080746   -0.00077216   -0.00090737
     atom   41 type  2   force =     0.00009067   -0.00001898    0.00015925
     atom   42 type  1   force =    -0.00002658    0.00000156    0.00010785
     atom   43 type  3   force =     0.00007156    0.00027355    0.00046319
     atom   44 type  3   force =     0.00004521    0.00002616   -0.00007237
     atom   45 type  3   force =     0.00010607    0.00003793    0.00051155
     atom   46 type  2   force =    -0.00023512   -0.00031798   -0.00006634
     atom   47 type  1   force =    -0.00079416   -0.00063424    0.00021958
     atom   48 type  3   force =     0.00029462    0.00106475   -0.00050160
     atom   49 type  3   force =     0.00053085    0.00068319    0.00031515
     atom   50 type  3   force =     0.00094452    0.00021666   -0.00059848
     atom   51 type  2   force =    -0.00016239   -0.00045712   -0.00021074
     atom   52 type  1   force =     0.00061348    0.00071467    0.00006877
     atom   53 type  3   force =     0.00093005    0.00011626    0.00022745
     atom   54 type  3   force =     0.00044876    0.00027020   -0.00044005
     atom   55 type  3   force =    -0.00032650    0.00042239    0.00058031
     atom   56 type  2   force =     0.00113158   -0.00152718    0.00030095
     atom   57 type  4   force =    -0.00054700   -0.00132442    0.00147953
     atom   58 type  3   force =    -0.00073081    0.00082580   -0.00039943
     atom   59 type  3   force =    -0.00104148   -0.00144803   -0.00088706
     atom   60 type  3   force =    -0.00040677   -0.00045736   -0.00046978
[...]
     atom   66 type  2   force =    -0.00021713   -0.00020032    0.00014119
     atom   67 type  1   force =    -0.00056335   -0.00059776   -0.00168392
     atom   68 type  3   force =     0.00034650    0.00040057    0.00021364
     atom   69 type  3   force =     0.00022724    0.00025467    0.00000403
     atom   70 type  3   force =     0.00041378    0.00029995    0.00022188
     atom   71 type  2   force =     0.00005427   -0.00003795    0.00037101
     atom   72 type  1   force =    -0.00046987   -0.00051108   -0.00102776
     atom   73 type  3   force =     0.00090107   -0.00045849   -0.00068945
     atom   74 type  3   force =     0.00125988    0.00096006    0.00052429
     atom   75 type  3   force =    -0.00039924    0.00081021   -0.00110281
     atom   76 type  2   force =     0.00242749    0.00073195   -0.00037048
     atom   77 type  1   force =    -0.00169662   -0.00139271    0.00010172
     atom   78 type  3   force =     0.00062262    0.00002321   -0.00112010
     atom   79 type  3   force =    -0.00116473   -0.00083591    0.00411518
     atom   80 type  3   force =    -0.00038476    0.00036875   -0.00100889

     Total force =     0.011270     Total SCF correction =     0.002736
     SCF correction compared to forces is large: reduce conv_thr to get better values

     bfgs converged in  20 scf cycles and  19 bfgs steps
     (criteria: energy <  5.0E-04 Ry, force <  5.0E-03 Ry/Bohr)

     End of BFGS Geometry Optimization

     Final energy   =   -6973.0359665415 Ry
Begin final coordinates

ATOMIC_POSITIONS (angstrom)
La       0.009534407  -0.000107713  13.619526657
Mn       1.975276373   1.966289256  15.158891588
O        1.977321808   0.000205499  15.201767257
O        1.976753305   1.967404632  13.363325859
O        0.010909263   1.966971841  15.202490088
La       0.004076731  -0.002352276  17.189423723
Mn       1.962562047   1.959398066  18.937472290
O        1.984939588   0.006835866  18.934228115
O        1.980202907   1.966659966  17.084590073
O        0.023103704   1.973246085  18.935407782
La       0.003416477   0.000229350  20.886263879
Ni       1.930078375   1.936634252  22.651381999
O        2.008214988  -0.042203858  22.618592049
O        2.006758963   1.981791127  20.770666891
O       -0.014976320   1.990807730  22.610542986
La      -0.038673478  -0.027069693  24.728656510
Mn       1.881893955   1.870899677  26.298457777
O        1.982985388   0.133408927  26.333809318
O        2.051836982   2.012239419  24.517893681
O        0.156676628   1.979484504  26.342986328
La       0.010296900   3.932652628  13.619632826
Mn       1.975482824   5.899276482  15.160395720
O        1.977348212   3.933504077  15.203978030
O        1.977674737   5.898285120  13.364965810
O        0.012909197   5.900010360  15.206865656
La       0.003574099   3.933220730  17.189976201
Mn       1.954550479   5.891917435  18.946066510
O        1.985218404   3.940369386  18.929096455
O        1.992799038   5.902896917  17.089012528
O        0.037430825   5.906914361  18.927917526
La      -0.004040950   3.894247655  20.886649191
Mn       1.892161634   5.873503579  22.676959347
O        2.004417688   4.019021903  22.628105477
O        2.013836613   5.907692841  20.786373262
O        0.077581903   5.919922559  22.631639003
La      -0.046975823   3.864769819  24.733895847
Ni       1.809477667   5.745365700  26.349389974
O        1.976106081   3.936633310  26.322893977
O        2.099299295   5.958039422  24.477184911
O        0.006020341   5.921965481  26.294713837
La       3.942648309   0.000300303  13.619676840
Mn       5.908423596   1.966580344  15.160552389
O        5.910265802   0.002411519  15.206193696
O        5.909504466   1.967919548  13.364943462
O        3.944201136   1.967032153  15.203227719
La       3.940025296  -0.002969812  17.189848906
Mn       5.895196802   1.950705458  18.947311195
O        5.918631623   0.023767123  18.929652022
O        5.915587877   1.979526217  17.089159413
O        3.956857133   1.973734245  18.929153539
La       3.900701662  -0.008874251  20.885087090
Mn       5.878508955   1.886009071  22.682743590
O        5.936256365   0.065884332  22.629242664
O        5.925447512   2.002401535  20.788121696
O        4.047183511   1.989991679  22.639363440
La       3.842236223  -0.053690190  24.714977294
Ni       5.736943312   1.791847096  26.343803568
O        5.923907575  -0.013867891  26.301460086
O        6.011096149   2.075581468  24.485443499
O        3.935861549   1.974565915  26.334894490
[...]
La       3.940606483   3.933758872  17.190940979
Mn       5.889303159   5.884713188  18.947700519
O        5.919144160   3.957984603  18.939887424
O        5.918118890   5.906828766  17.092095600
O        3.972050178   5.907658531  18.941607921
La       3.898700032   3.891695081  20.892018901
Mn       5.840773666   5.830935390  22.636059193
O        5.936670330   4.018878367  22.608418850
O        5.969628567   5.954504516  20.791115758
O        4.033264683   5.923069475  22.605884044
La       3.865303309   3.872214680  24.756499914
Mn       5.826946854   5.834716083  26.252927687
O        5.919820416   4.105691510  26.304030628
O        5.998703145   5.987920950  24.456446851
O        4.098936937   5.920108203  26.304774775
End final coordinates

     General routines

     Parallel routines

   This run was terminated on:   9:31:22  10Nov2020

   JOB DONE.